100 10
381 617
676 311
452 599
316 604
676 685
264 474
399 401
457 884
772 596
897 351
762 267
882 209
711 187
593 341
533 516
575 621
356 409
396 597
604 138
893 368
436 870
657 840
395 235
874 596
576 623
545 544
243 745
948 814
474 558
709 495
505 688
90 369
586 349
977 720
445 553
936 347
787 614
529 449
736 894
507 934
656 405
803 518
638 812
829 232
990 590
857 263
484 295
650 332
535 597
699 903
599 367
860 420
398 403
216 444
663 617
503 587
397 688
531 709
465 799
696 795
609 600
595 689
693 850
504 452
955 647
417 534
28 249
841 591
282 380
521 258
919 772
899 341
898 642
524 543
590 679
747 483
430 703
367 961
773 275
651 892
557 166
300 588
538 502
784 613
572 630
600 480
573 306
780 930
258 272
886 575
663 731
507 760
940 886
781 233
387 122
541 508
733 781
392 378
444 475
738 482
